Version identifier: 22.1.1.0 | 2022-11-28 | 9160aff4d
CPXPARAM_ClockType                               1
CPXPARAM_Read_DataCheck                          1
CPXPARAM_Threads                                 1
CPXPARAM_TimeLimit                               7200
CPXPARAM_MIP_Tolerances_AbsMIPGap                0
CPXPARAM_MIP_Tolerances_MIPGap                   0
CPXPARAM_MIP_Tolerances_Integrality              0
Tried aggregator 4 times.
MIP Presolve eliminated 490050 rows and 22761 columns.
MIP Presolve modified 11182 coefficients.
Aggregator did 8577 substitutions.
Reduced MIP has 24958 rows, 15912 columns, and 106390 nonzeros.
Reduced MIP has 15912 binaries, 0 generals, 0 SOSs, and 0 indicators.
Presolve time = 1.10 sec. (651.77 ticks)
Probing time = 0.01 sec. (9.66 ticks)
Tried aggregator 1 time.
Detecting symmetries...
MIP Presolve eliminated 28 rows and 0 columns.
MIP Presolve modified 278 coefficients.
Reduced MIP has 24930 rows, 15912 columns, and 105955 nonzeros.
Reduced MIP has 15912 binaries, 0 generals, 0 SOSs, and 0 indicators.
Presolve time = 0.13 sec. (75.11 ticks)
Probing time = 0.05 sec. (20.29 ticks)
Clique table members: 64106.
MIP emphasis: balance optimality and feasibility.
MIP search method: dynamic search.
Parallel mode: none, using 1 thread.
Root relaxation solution time = 161.86 sec. (116231.99 ticks)

        Nodes                                         Cuts/
   Node  Left     Objective  IInf  Best Integer    Best Bound    ItCnt     Gap

      0     0     3083.6667  2738                   3083.6667    93485         
      0     0     2881.0524  3798                  Cuts: 1874   513738         
      0     0     2850.6667  4396                  Cuts: 1098   802413         
      0     0     2843.3333  4312                   Cuts: 962  1084287         
      0     0     2842.0000  4333                   Cuts: 707  1242554         
      0     0     2842.0000  4445                   Cuts: 629  1346607         
Detecting symmetries...
      0     0     2842.0000  4518                   Cuts: 731  1435610         
Heuristic still looking.
Heuristic still looking.
*     0+    0                            0.0000     2842.0000              --- 
Detecting symmetries...
      0     2     2842.0000  4069        0.0000     2842.0000  1435610     --- 
Elapsed time = 3839.47 sec. (2303475.36 ticks, tree = 0.01 MB, solutions = 1)
      1     3     2842.0000  3875        0.0000     2842.0000  1671941     --- 
      2     4     2842.0000  4217        0.0000     2842.0000  1926654     --- 
      3     5     2842.0000  4047        0.0000     2842.0000  2024362     --- 
      4     6     2842.0000  3918        0.0000     2842.0000  2179899     --- 
      5     7     2842.0000  3971        0.0000     2842.0000  2182050     --- 
      6     8     2842.0000  4294        0.0000     2842.0000  2203134     --- 
      7     9     2842.0000  4762        0.0000     2842.0000  2275446     --- 
      8    10     2842.0000  4008        0.0000     2842.0000  2276413     --- 
      9    11     2842.0000  3728        0.0000     2842.0000  2378332     --- 
     10    12     2842.0000  3806        0.0000     2842.0000  2382142     --- 
Elapsed time = 5363.16 sec. (3454044.41 ticks, tree = 0.07 MB, solutions = 1)
     11    13     2842.0000  3794        0.0000     2842.0000  2382525     --- 
     12    14     2842.0000  3802        0.0000     2842.0000  2395035     --- 
     13    15     2842.0000  3961        0.0000     2842.0000  2397926     --- 
     14    16     2842.0000  4150        0.0000     2842.0000  2400134     --- 
     15    17     2842.0000  3933        0.0000     2842.0000  2401101     --- 
     16    18     2842.0000  4020        0.0000     2842.0000  2402533     --- 
     17    19     2842.0000  3812        0.0000     2842.0000  2403041     --- 
     18    20     2842.0000  3907        0.0000     2842.0000  2404829     --- 
     19    21     2842.0000  3864        0.0000     2842.0000  2405853     --- 
     20    22     2842.0000  3934        0.0000     2842.0000  2406867     --- 
Elapsed time = 5407.06 sec. (3490331.68 ticks, tree = 0.15 MB, solutions = 1)
     21    23     2842.0000  3989        0.0000     2842.0000  2408912     --- 
     22    24     2842.0000  3917        0.0000     2842.0000  2409753     --- 
     23    25     2842.0000  3950        0.0000     2842.0000  2411300     --- 
     24    26     2842.0000  4039        0.0000     2842.0000  2413093     --- 
     25    27     2842.0000  4022        0.0000     2842.0000  2414112     --- 
     26    28     2842.0000  3916        0.0000     2842.0000  2416373     --- 
     28    30     2842.0000  3933        0.0000     2842.0000  2418342     --- 
     29    31     2842.0000  3821        0.0000     2842.0000  2567746     --- 
     30    32     2842.0000  3973        0.0000     2842.0000  2574101     --- 
     31    33     2842.0000  3781        0.0000     2842.0000  2721950     --- 
Elapsed time = 5893.57 sec. (3875271.25 ticks, tree = 0.24 MB, solutions = 1)
     32    34     2842.0000  3570        0.0000     2842.0000  2851233     --- 
     33    35     2842.0000  3585        0.0000     2842.0000  2969129     --- 
     34    36     2842.0000  3594        0.0000     2842.0000  3061152     --- 
     35    37     2842.0000  3600        0.0000     2842.0000  3144957     --- 
     36    38     2842.0000  3860        0.0000     2842.0000  3150092     --- 
     37    39     2842.0000  3768        0.0000     2842.0000  3154113     --- 
     38    40     2842.0000  3762        0.0000     2842.0000  3169137     --- 
     39    41     2842.0000  3567        0.0000     2842.0000  3278183     --- 
     40    42     2842.0000  3486        0.0000     2842.0000  3393941     --- 
     41    43     2842.0000  3558        0.0000     2842.0000  3527638     --- 
Elapsed time = 7182.61 sec. (4890264.55 ticks, tree = 0.32 MB, solutions = 1)
     42    44     2842.0000  3566        0.0000     2842.0000  3530699     --- 

Clique cuts applied:  726
Implied bound cuts applied:  88
Zero-half cuts applied:  316
Lift and project cuts applied:  1
Gomory fractional cuts applied:  1

Root node processing (before b&c):
  Real time             = 3839.34 sec. (2303391.45 ticks)
Sequential b&c:
  Real time             = 3360.70 sec. (2601270.03 ticks)
                          ------------
Total (root+branch&cut) = 7200.04 sec. (4904661.48 ticks)
Solution is feasible.

---------------------
@@@ MIP_time_limit_feasible
>>> Benchmark mc2024_track1_151.cnf k 10 OPT 0 TimeCost 7722.928629398346 TimeSolve 7230.1561551094055 TimeRead 0.07422971725463867 TimeTrans 492.6982445716858
